DIMENSION: 6
EDGE_WEIGHT_TYPE: EXPLICIT
EDGE_WEIGHT_FORMAT: FULL_MATRIX
EDGE_WEIGHT_SECTION:
32767 36 29 39 32767 32767 
36 32767 32767 32767 32767 32767 
29 32767 32767 32767 75 90 
39 32767 32767 32767 21 99 
32767 32767 75 21 32767 32767 
32767 32767 90 99 32767 32767 
EOF